(set-option :produce-models true)
(set-logic QF_UF)
(declare-fun p20() Bool)
(declare-fun p22() Bool)
(declare-fun p26() Bool)
(declare-fun p14() Bool)
(declare-fun p17() Bool)
(declare-fun p6() Bool)
(declare-fun p15() Bool)
(declare-fun p13() Bool)
(declare-fun p21() Bool)
(declare-fun p36() Bool)
(declare-fun p28() Bool)
(declare-fun p23() Bool)
(declare-fun p33() Bool)
(declare-fun p4() Bool)
(declare-fun p8() Bool)
(declare-fun p29() Bool)
(declare-fun p3() Bool)
(declare-fun p9() Bool)
(declare-fun p39() Bool)
(declare-fun p0() Bool)
(declare-fun p5() Bool)
(declare-fun p16() Bool)
(declare-fun p10() Bool)
(declare-fun p19() Bool)
(declare-fun p32() Bool)
(declare-fun p34() Bool)
(declare-fun p35() Bool)
(declare-fun p2() Bool)
(declare-fun p7() Bool)
(declare-fun p12() Bool)
(declare-fun p38() Bool)
(declare-fun p30() Bool)
(declare-fun p11() Bool)
(declare-fun p31() Bool)
(declare-fun p27() Bool)
(declare-fun p24() Bool)
(declare-fun p25() Bool)
(declare-fun p1() Bool)
(declare-fun p37() Bool)
(declare-fun p18() Bool)
(assert
(and (or (not p20) (not p22) p26) (or (not p14) p17 p20) (or p6 (not p26) (not p17)) (or (not p15) (not p13) p13) (or p21 p36 p26) (or p15 (not p28) (not p28)) (or (not p23) (not p33) p14) (or p4 p26 (not p23)) (or p8 p20 (not p29)) (or p33 (not p28) (not p3)) (or (not p23) (not p9) p39) (or (not p0) (not p5) p16) (or (not p16) p10 (not p10)) (or (not p8) (not p19) p28) (or (not p23) p17 (not p17)) (or p32 p16 p9) (or (not p17) p23 p3) (or p34 (not p9) (not p5)) (or p28 p16 (not p26)) (or p35 p20 (not p0)) (or p0 (not p17) (not p19)) (or (not p2) (not p20) p7) (or (not p8) (not p29) (not p2)) (or p12 (not p38) p33) (or (not p3) p0 (not p30)) (or (not p5) p6 p9) (or p11 (not p13) (not p14)) (or p0 (not p28) (not p32)) (or (not p31) (not p27) (not p17)) (or (not p30) (not p38) (not p17)) (or (not p10) p22 p38) (or (not p39) (not p19) p22) (or (not p9) (not p16) (not p9)) (or (not p24) (not p29) p16) (or p25 p0 (not p0)) (or p2 (not p15) (not p38)) (or (not p21) (not p1) p0) (or p31 (not p15) p25) (or (not p20) p12 p37) (or (not p9) (not p38) p36) (or (not p34) p35 (not p18)) (or (not p19) p10 (not p37)) (or (not p32) (not p13) (not p16)) (or (not p22) p25 (not p26)) (or (not p23) (not p26) p30) (or (not p34) p39 (not p13)) (or p32 (not p27) p38) (or p26 p7 p7) (or (not p39) p8 p8) (or (not p1) (not p27) (not p37)) (or (not p27) (not p31) (not p17)) (or p3 p31 p21) (or p23 (not p19) p11) (or (not p15) (not p9) (not p34)) (or (not p10) (not p17) p14) (or p15 (not p10) p37) (or (not p33) p13 p28) (or p37 p7 p0) (or p23 p37 p30) (or p33 p11 p19) (or p34 (not p39) (not p11)) (or p21 (not p26) p27) (or p16 p12 p25) (or (not p14) p37 (not p1)) (or (not p30) (not p38) (not p27)) (or (not p38) (not p0) (not p22)) (or p26 p0 p21) (or p26 p39 p9) (or (not p19) (not p7) p33) (or (not p34) p33 (not p29)) (or p18 p23 (not p14)) (or p5 (not p37) p35) (or p27 p38 (not p33)) (or p4 (not p2) p4) (or (not p6) (not p9) (not p39)) (or (not p5) (not p22) (not p16)) (or (not p11) p25 p28) (or p17 p30 p10) (or (not p34) (not p5) (not p37)) (or p31 (not p38) (not p33)) (or p34 (not p3) (not p30)) (or (not p10) p2 (not p38)) (or (not p6) p14 p20) (or p15 (not p39) p16) (or p36 (not p27) (not p29)) (or p27 (not p12) p27) (or p20 (not p35) (not p19)) (or (not p8) (not p8) (not p26)) (or p28 p36 p28) (or (not p35) p16 (not p11)) (or (not p30) p28 (not p18)) (or p25 p2 p7) (or (not p8) (not p16) (not p21)) (or p15 (not p0) (not p5)) (or (not p21) (not p25) (not p35)) (or (not p5) (not p3) (not p30)) (or p6 p21 (not p5)) (or (not p13) p14 p20) (or (not p38) p36 (not p5)) (or (not p21) p1 (not p32)) (or p5 p32 (not p18)) (or (not p35) p32 p22) (or (not p14) (not p32) (not p5)) (or p13 (not p37) (not p24)) (or p6 p0 (not p24)) (or p25 (not p39) (not p5)) (or (not p38) p25 p15) (or p1 (not p17) p29) (or p26 p27 (not p33)) (or p9 (not p13) (not p38)) (or p9 p19 p25) (or (not p11) (not p7) p37) (or p38 (not p4) (not p3)) (or (not p25) p25 (not p11)) (or p17 (not p39) p8) (or (not p19) p39 p22) (or p25 (not p29) (not p3)) (or (not p11) p9 p15) (or (not p25) (not p8) (not p19)) (or p3 (not p20) p11) (or p23 p33 (not p16)) (or p1 p4 p30) (or (not p4) (not p37) (not p21)) (or (not p12) (not p20) p32) (or (not p37) (not p34) (not p11)) (or (not p24) (not p34) (not p5)) (or (not p36) p39 (not p24)) (or p33 (not p18) (not p35)) (or (not p37) (not p32) (not p19)) (or p32 (not p2) (not p21)) (or p39 p2 p4) (or (not p14) p10 p8) (or p29 (not p34) (not p13)) (or p21 p6 (not p31)) (or (not p35) (not p1) (not p14)) (or p13 p16 p8) (or (not p32) (not p30) p33) (or (not p21) (not p22) p21) (or p26 (not p10) p28) (or (not p39) (not p21) p22) (or p38 (not p4) p32) (or (not p38) (not p6) (not p37)) (or (not p0) p1 p22) (or (not p26) p15 p6) (or p31 (not p32) p9) (or p19 (not p29) p18) (or (not p32) p17 (not p8)) (or p12 p3 (not p27)) (or p19 p38 p11) (or (not p11) p5 p33) (or p5 p36 (not p28)) (or (not p27) (not p10) (not p12)) (or (not p14) (not p23) (not p37)) (or p6 p0 p36) (or p37 (not p28) (not p4)) (or (not p6) p13 p11) (or p15 p25 (not p10)) (or p12 p30 p15) (or (not p34) (not p3) p28) (or (not p29) p39 (not p19)) (or (not p16) (not p12) p32) (or p27 (not p33) (not p36)) (or p34 (not p14) p13) (or (not p17) (not p13) p12) (or p24 (not p32) p24) (or (not p13) (not p17) (not p5)) (or (not p22) p31 (not p5)) (or (not p17) (not p36) (not p5)) (or (not p28) (not p36) (not p33)) (or (not p29) p34 (not p30)) (or p31 p31 (not p11)))
)
(check-sat)
(get-model)
